;; sequence(s): A47262
;; terms: 0 2 4 5 6 8 10 11 12 14 16 17 18 20 22 23 24 26 28 29
;; small program: loop(((y div 2) + (x mod 2)) + y, x, x)
;; fast program: ((x div 2) + (if (x mod (2 + 2)) <= 0 then 0 else 1)) + x
(set-logic UFNIA)
(declare-fun f0 (Int Int) Int)
(declare-fun g0 (Int) Int)
(declare-fun h0 (Int) Int)
(declare-fun u0 (Int Int) Int)
(declare-fun v0 (Int) Int)
(declare-fun small (Int) Int)
(declare-fun fast (Int) Int)
(assert (forall ((x Int) (y Int)) (= (f0 x y) (+ (+ (div y 2) (mod x 2)) y))))
(assert (forall ((x Int)) (= (g0 x) x)))
(assert (forall ((x Int)) (= (h0 x) x)))
(assert (forall ((x Int) (y Int)) (= (u0 x y) (ite (<= x 0) y (f0 (u0 (- x 1) y) x)))))
(assert (forall ((x Int)) (= (v0 x) (u0 (g0 x) (h0 x)))))
(assert (forall ((x Int)) (= (small x) (v0 x))))
(assert (forall ((x Int)) (= (fast x) (+ (+ (div x 2) (ite (<= (mod x (+ 2 2)) 0) 0 1)) x))))
(assert (exists ((c Int)) (and (>= c 0) (not (= (small c) (fast c))))))
(check-sat)
